(declare-const X String)
; (?i)\w.*\@\w*\.\w*
(assert (str.in.re X (re.++ (re.union (re.range "0" "9") (re.range "A" "Z") (re.range "a" "z") (str.to.re "_")) (re.* re.allchar) (str.to.re "@") (re.* (re.union (re.range "0" "9") (re.range "A" "Z") (re.range "a" "z") (str.to.re "_"))) (str.to.re ".") (re.* (re.union (re.range "0" "9") (re.range "A" "Z") (re.range "a" "z") (str.to.re "_"))) (str.to.re "\x0a"))))
(check-sat)
